benchmark/results/graph__15-1000-0.10-02_1/graph__15-1000-0.10-02_1_QuintonOs_Benders_primal_sub.lp
\ This file has been generated by DOcplex
\ ENCODING=ISO-8859-1
\Problem name: Quinton Bounded Benders_primal_sub

Maximize
 obj: tau
Subject To
 c1: tau <= 0.001048218029
 c2: y_a0_proc_0 + y_a0_proc_1 - tau = 0
 c3: y_a0_proc_0 <= 0
 c4: y_a0_proc_1 <= 1
 c5: tau <= 0.000978473581
 c6: y_a1_proc_0 + y_a1_proc_1 - tau = 0
 c7: y_a1_proc_0 <= 0
 c8: y_a1_proc_1 <= 1
 c9: tau <= 0.002444987775
 c10: y_a2_proc_0 + y_a2_proc_1 - tau = 0
 c11: y_a2_proc_0 <= 1
 c12: y_a2_proc_1 <= 0
 c13: tau <= 0.001626016260
 c14: y_a3_proc_1 - tau = 0
 c15: y_a3_proc_1 <= 1
 c16: tau <= 0.001410437236
 c17: y_a4_proc_0 - tau = 0
 c18: y_a4_proc_0 <= 1
 c19: tau <= 0.001798561151
 c20: y_a5_proc_0 + y_a5_proc_1 - tau = 0
 c21: y_a5_proc_0 <= 0
 c22: y_a5_proc_1 <= 1
 c23: tau <= 0.001964636542
 c24: y_a6_proc_0 + y_a6_proc_1 - tau = 0
 c25: y_a6_proc_0 <= 1
 c26: y_a6_proc_1 <= 0
 c27: tau <= 0.001172332943
 c28: y_a7_proc_1 - tau = 0
 c29: y_a7_proc_1 <= 1
 c30: tau <= 0.001333333333
 c31: y_a8_proc_0 + y_a8_proc_1 - tau = 0
 c32: y_a8_proc_0 <= 0
 c33: y_a8_proc_1 <= 1
 c34: tau <= 0.001555209953
 c35: y_a9_proc_0 + y_a9_proc_1 - tau = 0
 c36: y_a9_proc_0 <= 1
 c37: y_a9_proc_1 <= 0
 c38: tau <= 0.000931966449
 c39: y_a10_proc_0 + y_a10_proc_1 - tau = 0
 c40: y_a10_proc_0 <= 1
 c41: y_a10_proc_1 <= 0
 c42: tau <= 0.001248439451
 c43: y_a11_proc_0 - tau = 0
 c44: y_a11_proc_0 <= 1
 c45: tau <= 0.000994035785
 c46: y_a12_proc_0 + y_a12_proc_1 - tau = 0
 c47: y_a12_proc_0 <= 0
 c48: y_a12_proc_1 <= 1
 c49: tau <= 0.000986193294
 c50: y_a13_proc_0 + y_a13_proc_1 - tau = 0
 c51: y_a13_proc_0 <= 0
 c52: y_a13_proc_1 <= 1
 c53: tau <= 0.000819672131
 c54: y_a14_proc_0 + y_a14_proc_1 - tau = 0
 c55: y_a14_proc_0 <= 1
 c56: y_a14_proc_1 <= 0
 c57: u_a0 - u_a1 - 1251 y_a1_proc_0 - 1022 y_a1_proc_1 >= -1
 c58: u_a1 - u_a2 - 409 y_a2_proc_0 - 1040 y_a2_proc_1 >= 0
 c59: u_a3 - u_a0 - 1188 y_a0_proc_0 - 954 y_a0_proc_1 >= 0
 c60: u_a4 - u_a3 - 615 y_a3_proc_1 >= 0
 c61: u_a4 - u_a5 - 801 y_a5_proc_0 - 556 y_a5_proc_1 >= 0
 c62: u_a6 - u_a3 - 615 y_a3_proc_1 >= 0
 c63: u_a5 - u_a7 - 853 y_a7_proc_1 >= -1
 c64: u_a2 - u_a8 - 1035 y_a8_proc_0 - 750 y_a8_proc_1 >= 0
 c65: u_a9 - u_a8 - 1035 y_a8_proc_0 - 750 y_a8_proc_1 >= 0
 c66: u_a9 - u_a10 - 1073 y_a10_proc_0 - 1215 y_a10_proc_1 >= 0
 c67: u_a10 - u_a11 - 801 y_a11_proc_0 >= 0
 c68: u_a12 - u_a6 - 509 y_a6_proc_0 - 858 y_a6_proc_1 >= 0
 c69: u_a13 - u_a12 - 659 y_a12_proc_0 - 1006 y_a12_proc_1 >= -1
 c70: u_a14 - u_a6 - 509 y_a6_proc_0 - 858 y_a6_proc_1 >= 0
 c71: u_a7 - u_a10 - 1073 y_a10_proc_0 - 1215 y_a10_proc_1 >= 0
 c72: u_a5 - u_a11 - 801 y_a11_proc_0 >= -1
 c73: u_a13 - u_a9 - 643 y_a9_proc_0 - 913 y_a9_proc_1 >= -1
 c74: u_a4 - u_a14 - 1220 y_a14_proc_0 - 984 y_a14_proc_1 >= 0
 c75: u_a10 - u_a12 - 659 y_a12_proc_0 - 1006 y_a12_proc_1 >= 0
 c76: u_a5 - u_a13 - 1130 y_a13_proc_0 - 1014 y_a13_proc_1 >= 0
 c77: u_a11 - u_a8 - 1035 y_a8_proc_0 - 750 y_a8_proc_1 >= 0
 c78: u_a8 - u_a4 - 709 y_a4_proc_0 >= 0
 c79: u_a2 - u_a7 - 853 y_a7_proc_1 >= -1
 c80: u_a13 - u_a6 - 509 y_a6_proc_0 - 858 y_a6_proc_1 >= 0
 c81: u_a8 - u_a3 - 615 y_a3_proc_1 >= 0
 c82: u_a12 - u_a13 - 1130 y_a13_proc_0 - 1014 y_a13_proc_1 >= 0
 c83: u_a11 - u_a4 - 709 y_a4_proc_0 >= 0
 c84: u_a12 - u_a4 - 709 y_a4_proc_0 >= -1
 c85: u_a2 - u_a14 - 1220 y_a14_proc_0 - 984 y_a14_proc_1 >= 0
 c86: u_a1 - u_a0 - 1188 y_a0_proc_0 >= -2502
 c87: u_a1 - u_a0 - 954 y_a0_proc_1 >= 0
 c88: u_a0 - u_a1 - 1251 y_a1_proc_0 >= -2503
 c89: u_a0 - u_a1 - 1022 y_a1_proc_1 >= -1
 c90: u_a2 - u_a0 - 1188 y_a0_proc_0 >= -1268
 c91: u_a2 - u_a0 - 954 y_a0_proc_1 >= -1268
 c92: u_a0 - u_a2 - 409 y_a2_proc_0 >= -1235
 c93: u_a0 - u_a2 - 1040 y_a2_proc_1 >= -1235
 c94: u_a3 - u_a0 - 954 y_a0_proc_1 >= 0
 c95: u_a0 - u_a3 - 615 y_a3_proc_1 >= -1
 c96: u_a4 - u_a0 - 1188 y_a0_proc_0 >= -1235
 c97: u_a0 - u_a4 - 709 y_a4_proc_0 >= -1268
 c98: u_a5 - u_a0 - 1188 y_a0_proc_0 >= -2502
 c99: u_a5 - u_a0 - 954 y_a0_proc_1 >= 0
 c100: u_a0 - u_a5 - 801 y_a5_proc_0 >= -2503
 c101: u_a0 - u_a5 - 556 y_a5_proc_1 >= -1
 c102: u_a6 - u_a0 - 1188 y_a0_proc_0 >= -1235
 c103: u_a6 - u_a0 - 954 y_a0_proc_1 >= -1235
 c104: u_a0 - u_a6 - 509 y_a6_proc_0 >= -1268
 c105: u_a0 - u_a6 - 858 y_a6_proc_1 >= -1268
 c106: u_a7 - u_a0 - 954 y_a0_proc_1 >= 1
 c107: u_a0 - u_a7 - 853 y_a7_proc_1 >= -2
 c108: u_a8 - u_a0 - 1188 y_a0_proc_0 >= -2502
 c109: u_a8 - u_a0 - 954 y_a0_proc_1 >= 0
 c110: u_a0 - u_a8 - 1035 y_a8_proc_0 >= -2503
 c111: u_a0 - u_a8 - 750 y_a8_proc_1 >= -1
 c112: u_a9 - u_a0 - 1188 y_a0_proc_0 >= -1263
 c113: u_a9 - u_a0 - 954 y_a0_proc_1 >= -1263
 c114: u_a0 - u_a9 - 643 y_a9_proc_0 >= -1240
 c115: u_a0 - u_a9 - 913 y_a9_proc_1 >= -1240
 c116: u_a10 - u_a0 - 1188 y_a0_proc_0 >= -1235
 c117: u_a10 - u_a0 - 954 y_a0_proc_1 >= -1235
 c118: u_a0 - u_a10 - 1073 y_a10_proc_0 >= -1268
 c119: u_a0 - u_a10 - 1215 y_a10_proc_1 >= -1268
 c120: u_a11 - u_a0 - 1188 y_a0_proc_0 >= -1235
 c121: u_a0 - u_a11 - 801 y_a11_proc_0 >= -1268
 c122: u_a12 - u_a0 - 1188 y_a0_proc_0 >= -2502
 c123: u_a12 - u_a0 - 954 y_a0_proc_1 >= 0
 c124: u_a0 - u_a12 - 659 y_a12_proc_0 >= -2503
 c125: u_a0 - u_a12 - 1006 y_a12_proc_1 >= -1
 c126: u_a13 - u_a0 - 1188 y_a0_proc_0 >= -2502
 c127: u_a13 - u_a0 - 954 y_a0_proc_1 >= 0
 c128: u_a0 - u_a13 - 1130 y_a13_proc_0 >= -2503
 c129: u_a0 - u_a13 - 1014 y_a13_proc_1 >= -1
 c130: u_a14 - u_a0 - 1188 y_a0_proc_0 >= -1268
 c131: u_a14 - u_a0 - 954 y_a0_proc_1 >= -1268
 c132: u_a0 - u_a14 - 1220 y_a14_proc_0 >= -1235
 c133: u_a0 - u_a14 - 984 y_a14_proc_1 >= -1235
 c134: u_a2 - u_a1 - 1251 y_a1_proc_0 >= -1268
 c135: u_a2 - u_a1 - 1022 y_a1_proc_1 >= -1268
 c136: u_a1 - u_a2 - 409 y_a2_proc_0 >= -1235
 c137: u_a1 - u_a2 - 1040 y_a2_proc_1 >= -1235
 c138: u_a3 - u_a1 - 1022 y_a1_proc_1 >= -1
 c139: u_a1 - u_a3 - 615 y_a3_proc_1 >= 0
 c140: u_a4 - u_a1 - 1251 y_a1_proc_0 >= -1235
 c141: u_a1 - u_a4 - 709 y_a4_proc_0 >= -1268
 c142: u_a5 - u_a1 - 1251 y_a1_proc_0 >= -2503
 c143: u_a5 - u_a1 - 1022 y_a1_proc_1 >= -1
 c144: u_a1 - u_a5 - 801 y_a5_proc_0 >= -2502
 c145: u_a1 - u_a5 - 556 y_a5_proc_1 >= 0
 c146: u_a6 - u_a1 - 1251 y_a1_proc_0 >= -1268
 c147: u_a6 - u_a1 - 1022 y_a1_proc_1 >= -1268
 c148: u_a1 - u_a6 - 509 y_a6_proc_0 >= -1235
 c149: u_a1 - u_a6 - 858 y_a6_proc_1 >= -1235
 c150: u_a7 - u_a1 - 1022 y_a1_proc_1 >= 0
 c151: u_a1 - u_a7 - 853 y_a7_proc_1 >= -1
 c152: u_a8 - u_a1 - 1251 y_a1_proc_0 >= -2503
 c153: u_a8 - u_a1 - 1022 y_a1_proc_1 >= -1
 c154: u_a1 - u_a8 - 1035 y_a8_proc_0 >= -2502
 c155: u_a1 - u_a8 - 750 y_a8_proc_1 >= 0
 c156: u_a9 - u_a1 - 1251 y_a1_proc_0 >= -1235
 c157: u_a9 - u_a1 - 1022 y_a1_proc_1 >= -1235
 c158: u_a1 - u_a9 - 643 y_a9_proc_0 >= -1268
 c159: u_a1 - u_a9 - 913 y_a9_proc_1 >= -1268
 c160: u_a10 - u_a1 - 1251 y_a1_proc_0 >= -1235
 c161: u_a10 - u_a1 - 1022 y_a1_proc_1 >= -1235
 c162: u_a1 - u_a10 - 1073 y_a10_proc_0 >= -1268
 c163: u_a1 - u_a10 - 1215 y_a10_proc_1 >= -1268
 c164: u_a11 - u_a1 - 1251 y_a1_proc_0 >= -1235
 c165: u_a1 - u_a11 - 801 y_a11_proc_0 >= -1268
 c166: u_a12 - u_a1 - 1251 y_a1_proc_0 >= -2503
 c167: u_a12 - u_a1 - 1022 y_a1_proc_1 >= -1
 c168: u_a1 - u_a12 - 659 y_a12_proc_0 >= -2502
 c169: u_a1 - u_a12 - 1006 y_a12_proc_1 >= 0
 c170: u_a13 - u_a1 - 1251 y_a1_proc_0 >= -2503
 c171: u_a13 - u_a1 - 1022 y_a1_proc_1 >= -1
 c172: u_a1 - u_a13 - 1130 y_a13_proc_0 >= -2502
 c173: u_a1 - u_a13 - 1014 y_a13_proc_1 >= 0
 c174: u_a14 - u_a1 - 1251 y_a1_proc_0 >= -1268
 c175: u_a14 - u_a1 - 1022 y_a1_proc_1 >= -1268
 c176: u_a1 - u_a14 - 1220 y_a14_proc_0 >= -1235
 c177: u_a1 - u_a14 - 984 y_a14_proc_1 >= -1235
 c178: u_a3 - u_a2 - 1040 y_a2_proc_1 >= -1268
 c179: u_a2 - u_a3 - 615 y_a3_proc_1 >= -1235
 c180: u_a4 - u_a2 - 409 y_a2_proc_0 >= -1
 c181: u_a2 - u_a4 - 709 y_a4_proc_0 >= 0
 c182: u_a5 - u_a2 - 409 y_a2_proc_0 >= -1268
 c183: u_a5 - u_a2 - 1040 y_a2_proc_1 >= -1268
 c184: u_a2 - u_a5 - 801 y_a5_proc_0 >= -1235
 c185: u_a2 - u_a5 - 556 y_a5_proc_1 >= -1235
 c186: u_a6 - u_a2 - 409 y_a2_proc_0 >= -1
 c187: u_a6 - u_a2 - 1040 y_a2_proc_1 >= -2503
 c188: u_a2 - u_a6 - 509 y_a6_proc_0 >= 0
 c189: u_a2 - u_a6 - 858 y_a6_proc_1 >= -2502
 c190: u_a7 - u_a2 - 1040 y_a2_proc_1 >= -1235
 c191: u_a2 - u_a7 - 853 y_a7_proc_1 >= -1268
 c192: u_a8 - u_a2 - 409 y_a2_proc_0 >= -1268
 c193: u_a8 - u_a2 - 1040 y_a2_proc_1 >= -1268
 c194: u_a2 - u_a8 - 1035 y_a8_proc_0 >= -1235
 c195: u_a2 - u_a8 - 750 y_a8_proc_1 >= -1235
 c196: u_a9 - u_a2 - 409 y_a2_proc_0 >= 0
 c197: u_a9 - u_a2 - 1040 y_a2_proc_1 >= -2502
 c198: u_a2 - u_a9 - 643 y_a9_proc_0 >= -1
 c199: u_a2 - u_a9 - 913 y_a9_proc_1 >= -2503
 c200: u_a10 - u_a2 - 409 y_a2_proc_0 >= 0
 c201: u_a10 - u_a2 - 1040 y_a2_proc_1 >= -2502
 c202: u_a2 - u_a10 - 1073 y_a10_proc_0 >= -1
 c203: u_a2 - u_a10 - 1215 y_a10_proc_1 >= -2503
 c204: u_a11 - u_a2 - 409 y_a2_proc_0 >= 0
 c205: u_a2 - u_a11 - 801 y_a11_proc_0 >= -1
 c206: u_a12 - u_a2 - 409 y_a2_proc_0 >= -1235
 c207: u_a12 - u_a2 - 1040 y_a2_proc_1 >= -1235
 c208: u_a2 - u_a12 - 659 y_a12_proc_0 >= -1268
 c209: u_a2 - u_a12 - 1006 y_a12_proc_1 >= -1268
 c210: u_a13 - u_a2 - 409 y_a2_proc_0 >= -1268
 c211: u_a13 - u_a2 - 1040 y_a2_proc_1 >= -1268
 c212: u_a2 - u_a13 - 1130 y_a13_proc_0 >= -1235
 c213: u_a2 - u_a13 - 1014 y_a13_proc_1 >= -1235
 c214: u_a14 - u_a2 - 409 y_a2_proc_0 >= -1
 c215: u_a14 - u_a2 - 1040 y_a2_proc_1 >= -2503
 c216: u_a2 - u_a14 - 1220 y_a14_proc_0 >= 0
 c217: u_a2 - u_a14 - 984 y_a14_proc_1 >= -2502
 c218: u_a5 - u_a3 - 615 y_a3_proc_1 >= 0
 c219: u_a3 - u_a5 - 556 y_a5_proc_1 >= -1
 c220: u_a6 - u_a3 - 615 y_a3_proc_1 >= -1268
 c221: u_a3 - u_a6 - 858 y_a6_proc_1 >= -1235
 c222: u_a7 - u_a3 - 615 y_a3_proc_1 >= 1
 c223: u_a3 - u_a7 - 853 y_a7_proc_1 >= -2
 c224: u_a8 - u_a3 - 615 y_a3_proc_1 >= 0
 c225: u_a3 - u_a8 - 750 y_a8_proc_1 >= -1
 c226: u_a9 - u_a3 - 615 y_a3_proc_1 >= -1268
 c227: u_a3 - u_a9 - 913 y_a9_proc_1 >= -1235
 c228: u_a10 - u_a3 - 615 y_a3_proc_1 >= -1235
 c229: u_a3 - u_a10 - 1215 y_a10_proc_1 >= -1268
 c230: u_a12 - u_a3 - 615 y_a3_proc_1 >= 0
 c231: u_a3 - u_a12 - 1006 y_a12_proc_1 >= -1
 c232: u_a13 - u_a3 - 615 y_a3_proc_1 >= 0
 c233: u_a3 - u_a13 - 1014 y_a13_proc_1 >= -1
 c234: u_a14 - u_a3 - 615 y_a3_proc_1 >= -1268
 c235: u_a3 - u_a14 - 984 y_a14_proc_1 >= -1235
 c236: u_a5 - u_a4 - 709 y_a4_proc_0 >= -1235
 c237: u_a4 - u_a5 - 801 y_a5_proc_0 >= -1268
 c238: u_a6 - u_a4 - 709 y_a4_proc_0 >= -1
 c239: u_a4 - u_a6 - 509 y_a6_proc_0 >= 0
 c240: u_a8 - u_a4 - 709 y_a4_proc_0 >= -1268
 c241: u_a4 - u_a8 - 1035 y_a8_proc_0 >= -1235
 c242: u_a9 - u_a4 - 709 y_a4_proc_0 >= 0
 c243: u_a4 - u_a9 - 643 y_a9_proc_0 >= -1
 c244: u_a10 - u_a4 - 709 y_a4_proc_0 >= 0
 c245: u_a4 - u_a10 - 1073 y_a10_proc_0 >= -1
 c246: u_a11 - u_a4 - 709 y_a4_proc_0 >= 0
 c247: u_a4 - u_a11 - 801 y_a11_proc_0 >= -1
 c248: u_a12 - u_a4 - 709 y_a4_proc_0 >= -1235
 c249: u_a4 - u_a12 - 659 y_a12_proc_0 >= -1268
 c250: u_a13 - u_a4 - 709 y_a4_proc_0 >= -1268
 c251: u_a4 - u_a13 - 1130 y_a13_proc_0 >= -1235
 c252: u_a14 - u_a4 - 709 y_a4_proc_0 >= -1
 c253: u_a4 - u_a14 - 1220 y_a14_proc_0 >= 0
 c254: u_a6 - u_a5 - 801 y_a5_proc_0 >= -1268
 c255: u_a6 - u_a5 - 556 y_a5_proc_1 >= -1268
 c256: u_a5 - u_a6 - 509 y_a6_proc_0 >= -1235
 c257: u_a5 - u_a6 - 858 y_a6_proc_1 >= -1235
 c258: u_a7 - u_a5 - 556 y_a5_proc_1 >= 0
 c259: u_a5 - u_a7 - 853 y_a7_proc_1 >= -1
 c260: u_a8 - u_a5 - 801 y_a5_proc_0 >= -2502
 c261: u_a8 - u_a5 - 556 y_a5_proc_1 >= 0
 c262: u_a5 - u_a8 - 1035 y_a8_proc_0 >= -2503
 c263: u_a5 - u_a8 - 750 y_a8_proc_1 >= -1
 c264: u_a9 - u_a5 - 801 y_a5_proc_0 >= -1268
 c265: u_a9 - u_a5 - 556 y_a5_proc_1 >= -1268
 c266: u_a5 - u_a9 - 643 y_a9_proc_0 >= -1235
 c267: u_a5 - u_a9 - 913 y_a9_proc_1 >= -1235
 c268: u_a10 - u_a5 - 801 y_a5_proc_0 >= -1268
 c269: u_a10 - u_a5 - 556 y_a5_proc_1 >= -1268
 c270: u_a5 - u_a10 - 1073 y_a10_proc_0 >= -1235
 c271: u_a5 - u_a10 - 1215 y_a10_proc_1 >= -1235
 c272: u_a11 - u_a5 - 801 y_a5_proc_0 >= -1262
 c273: u_a5 - u_a11 - 801 y_a11_proc_0 >= -1241
 c274: u_a12 - u_a5 - 801 y_a5_proc_0 >= -2502
 c275: u_a12 - u_a5 - 556 y_a5_proc_1 >= 0
 c276: u_a5 - u_a12 - 659 y_a12_proc_0 >= -2503
 c277: u_a5 - u_a12 - 1006 y_a12_proc_1 >= -1
 c278: u_a13 - u_a5 - 801 y_a5_proc_0 >= -2503
 c279: u_a13 - u_a5 - 556 y_a5_proc_1 >= -1
 c280: u_a5 - u_a13 - 1130 y_a13_proc_0 >= -2502
 c281: u_a5 - u_a13 - 1014 y_a13_proc_1 >= 0
 c282: u_a14 - u_a5 - 801 y_a5_proc_0 >= -1235
 c283: u_a14 - u_a5 - 556 y_a5_proc_1 >= -1235
 c284: u_a5 - u_a14 - 1220 y_a14_proc_0 >= -1268
 c285: u_a5 - u_a14 - 984 y_a14_proc_1 >= -1268
 c286: u_a7 - u_a6 - 858 y_a6_proc_1 >= -1268
 c287: u_a6 - u_a7 - 853 y_a7_proc_1 >= -1235
 c288: u_a8 - u_a6 - 509 y_a6_proc_0 >= -1235
 c289: u_a8 - u_a6 - 858 y_a6_proc_1 >= -1235
 c290: u_a6 - u_a8 - 1035 y_a8_proc_0 >= -1268
 c291: u_a6 - u_a8 - 750 y_a8_proc_1 >= -1268
 c292: u_a9 - u_a6 - 509 y_a6_proc_0 >= 1
 c293: u_a9 - u_a6 - 858 y_a6_proc_1 >= -2501
 c294: u_a6 - u_a9 - 643 y_a9_proc_0 >= -2
 c295: u_a6 - u_a9 - 913 y_a9_proc_1 >= -2504
 c296: u_a10 - u_a6 - 509 y_a6_proc_0 >= 0
 c297: u_a10 - u_a6 - 858 y_a6_proc_1 >= -2502
 c298: u_a6 - u_a10 - 1073 y_a10_proc_0 >= -1
 c299: u_a6 - u_a10 - 1215 y_a10_proc_1 >= -2503
 c300: u_a11 - u_a6 - 509 y_a6_proc_0 >= 0
 c301: u_a6 - u_a11 - 801 y_a11_proc_0 >= -1
 c302: u_a12 - u_a6 - 509 y_a6_proc_0 >= -1268
 c303: u_a12 - u_a6 - 858 y_a6_proc_1 >= -1268
 c304: u_a6 - u_a12 - 659 y_a12_proc_0 >= -1235
 c305: u_a6 - u_a12 - 1006 y_a12_proc_1 >= -1235
 c306: u_a13 - u_a6 - 509 y_a6_proc_0 >= -1268
 c307: u_a13 - u_a6 - 858 y_a6_proc_1 >= -1268
 c308: u_a6 - u_a13 - 1130 y_a13_proc_0 >= -1235
 c309: u_a6 - u_a13 - 1014 y_a13_proc_1 >= -1235
 c310: u_a14 - u_a6 - 509 y_a6_proc_0 >= 0
 c311: u_a14 - u_a6 - 858 y_a6_proc_1 >= -2502
 c312: u_a6 - u_a14 - 1220 y_a14_proc_0 >= -1
 c313: u_a6 - u_a14 - 984 y_a14_proc_1 >= -2503
 c314: u_a8 - u_a7 - 853 y_a7_proc_1 >= -1
 c315: u_a7 - u_a8 - 750 y_a8_proc_1 >= 0
 c316: u_a9 - u_a7 - 853 y_a7_proc_1 >= -1235
 c317: u_a7 - u_a9 - 913 y_a9_proc_1 >= -1268
 c318: u_a10 - u_a7 - 853 y_a7_proc_1 >= -1235
 c319: u_a7 - u_a10 - 1215 y_a10_proc_1 >= -1268
 c320: u_a12 - u_a7 - 853 y_a7_proc_1 >= -1
 c321: u_a7 - u_a12 - 1006 y_a12_proc_1 >= 0
 c322: u_a13 - u_a7 - 853 y_a7_proc_1 >= -1
 c323: u_a7 - u_a13 - 1014 y_a13_proc_1 >= 0
 c324: u_a14 - u_a7 - 853 y_a7_proc_1 >= -1235
 c325: u_a7 - u_a14 - 984 y_a14_proc_1 >= -1268
 c326: u_a9 - u_a8 - 1035 y_a8_proc_0 >= -1268
 c327: u_a9 - u_a8 - 750 y_a8_proc_1 >= -1268
 c328: u_a8 - u_a9 - 643 y_a9_proc_0 >= -1235
 c329: u_a8 - u_a9 - 913 y_a9_proc_1 >= -1235
 c330: u_a10 - u_a8 - 1035 y_a8_proc_0 >= -1235
 c331: u_a10 - u_a8 - 750 y_a8_proc_1 >= -1235
 c332: u_a8 - u_a10 - 1073 y_a10_proc_0 >= -1268
 c333: u_a8 - u_a10 - 1215 y_a10_proc_1 >= -1268
 c334: u_a11 - u_a8 - 1035 y_a8_proc_0 >= -1268
 c335: u_a8 - u_a11 - 801 y_a11_proc_0 >= -1235
 c336: u_a12 - u_a8 - 1035 y_a8_proc_0 >= -2503
 c337: u_a12 - u_a8 - 750 y_a8_proc_1 >= -1
 c338: u_a8 - u_a12 - 659 y_a12_proc_0 >= -2502
 c339: u_a8 - u_a12 - 1006 y_a12_proc_1 >= 0
 c340: u_a13 - u_a8 - 1035 y_a8_proc_0 >= -2503
 c341: u_a13 - u_a8 - 750 y_a8_proc_1 >= -1
 c342: u_a8 - u_a13 - 1130 y_a13_proc_0 >= -2502
 c343: u_a8 - u_a13 - 1014 y_a13_proc_1 >= 0
 c344: u_a14 - u_a8 - 1035 y_a8_proc_0 >= -1235
 c345: u_a14 - u_a8 - 750 y_a8_proc_1 >= -1235
 c346: u_a8 - u_a14 - 1220 y_a14_proc_0 >= -1268
 c347: u_a8 - u_a14 - 984 y_a14_proc_1 >= -1268
 c348: u_a10 - u_a9 - 643 y_a9_proc_0 >= -1
 c349: u_a10 - u_a9 - 913 y_a9_proc_1 >= -2503
 c350: u_a9 - u_a10 - 1073 y_a10_proc_0 >= 0
 c351: u_a9 - u_a10 - 1215 y_a10_proc_1 >= -2502
 c352: u_a11 - u_a9 - 643 y_a9_proc_0 >= -1
 c353: u_a9 - u_a11 - 801 y_a11_proc_0 >= 0
 c354: u_a12 - u_a9 - 643 y_a9_proc_0 >= -1268
 c355: u_a12 - u_a9 - 913 y_a9_proc_1 >= -1268
 c356: u_a9 - u_a12 - 659 y_a12_proc_0 >= -1235
 c357: u_a9 - u_a12 - 1006 y_a12_proc_1 >= -1235
 c358: u_a13 - u_a9 - 643 y_a9_proc_0 >= -1235
 c359: u_a13 - u_a9 - 913 y_a9_proc_1 >= -1235
 c360: u_a9 - u_a13 - 1130 y_a13_proc_0 >= -1268
 c361: u_a9 - u_a13 - 1014 y_a13_proc_1 >= -1268
 c362: u_a14 - u_a9 - 643 y_a9_proc_0 >= -1
 c363: u_a14 - u_a9 - 913 y_a9_proc_1 >= -2503
 c364: u_a9 - u_a14 - 1220 y_a14_proc_0 >= 0
 c365: u_a9 - u_a14 - 984 y_a14_proc_1 >= -2502
 c366: u_a11 - u_a10 - 1073 y_a10_proc_0 >= -1
 c367: u_a10 - u_a11 - 801 y_a11_proc_0 >= 0
 c368: u_a12 - u_a10 - 1073 y_a10_proc_0 >= -1268
 c369: u_a12 - u_a10 - 1215 y_a10_proc_1 >= -1268
 c370: u_a10 - u_a12 - 659 y_a12_proc_0 >= -1235
 c371: u_a10 - u_a12 - 1006 y_a12_proc_1 >= -1235
 c372: u_a13 - u_a10 - 1073 y_a10_proc_0 >= -1268
 c373: u_a13 - u_a10 - 1215 y_a10_proc_1 >= -1268
 c374: u_a10 - u_a13 - 1130 y_a13_proc_0 >= -1235
 c375: u_a10 - u_a13 - 1014 y_a13_proc_1 >= -1235
 c376: u_a14 - u_a10 - 1073 y_a10_proc_0 >= -1
 c377: u_a14 - u_a10 - 1215 y_a10_proc_1 >= -2503
 c378: u_a10 - u_a14 - 1220 y_a14_proc_0 >= 0
 c379: u_a10 - u_a14 - 984 y_a14_proc_1 >= -2502
 c380: u_a12 - u_a11 - 801 y_a11_proc_0 >= -1268
 c381: u_a11 - u_a12 - 659 y_a12_proc_0 >= -1235
 c382: u_a13 - u_a11 - 801 y_a11_proc_0 >= -1268
 c383: u_a11 - u_a13 - 1130 y_a13_proc_0 >= -1235
 c384: u_a14 - u_a11 - 801 y_a11_proc_0 >= -1
 c385: u_a11 - u_a14 - 1220 y_a14_proc_0 >= 0
 c386: u_a13 - u_a12 - 659 y_a12_proc_0 >= -2503
 c387: u_a13 - u_a12 - 1006 y_a12_proc_1 >= -1
 c388: u_a12 - u_a13 - 1130 y_a13_proc_0 >= -2502
 c389: u_a12 - u_a13 - 1014 y_a13_proc_1 >= 0
 c390: u_a14 - u_a12 - 659 y_a12_proc_0 >= -1235
 c391: u_a14 - u_a12 - 1006 y_a12_proc_1 >= -1235
 c392: u_a12 - u_a14 - 1220 y_a14_proc_0 >= -1268
 c393: u_a12 - u_a14 - 984 y_a14_proc_1 >= -1268
 c394: u_a14 - u_a13 - 1130 y_a13_proc_0 >= -1268
 c395: u_a14 - u_a13 - 1014 y_a13_proc_1 >= -1268
 c396: u_a13 - u_a14 - 1220 y_a14_proc_0 >= -1235
 c397: u_a13 - u_a14 - 984 y_a14_proc_1 >= -1235

Bounds
End
